(set-logic QF_UF)
(declare-fun A0 () Bool)
(declare-fun A1 () Bool)
(declare-fun A2 () Bool)
(declare-fun A3 () Bool)
(declare-fun A4 () Bool)
(declare-fun A5 () Bool)
(declare-fun A7 () Bool)
(declare-fun A8 () Bool)
(declare-fun A10 () Bool)
(declare-fun A11 () Bool)
(declare-fun A12 () Bool)
(declare-fun A13 () Bool)
(declare-fun A14 () Bool)
(declare-fun A15 () Bool)
(declare-fun A16 () Bool)
(declare-fun A17 () Bool)
(declare-fun A18 () Bool)
(declare-fun A19 () Bool)
(declare-fun A20 () Bool)
(declare-fun A21 () Bool)
(declare-fun A22 () Bool)
(declare-fun A23 () Bool)
(declare-fun A24 () Bool)
(declare-fun A25 () Bool)
(declare-fun A26 () Bool)
(declare-fun A27 () Bool)
(declare-fun A28 () Bool)
(declare-fun A29 () Bool)
(assert (let ((.def_0 (and A0 A3))) (let ((.def_1 (not A21))) (let ((.def_2 (not A19))) (let ((.def_3 (and .def_2 .def_1))) (let ((.def_4 (not .def_3))) (let ((.def_5 (and .def_4 .def_0))) (let ((.def_6 (not .def_5))) (let ((.def_7 (and A3 A12))) (let ((.def_8 (not A10))) (let ((.def_9 (and A27 .def_8))) (let ((.def_10 (and .def_9 .def_7))) (let ((.def_11 (and .def_10 .def_6))) (let ((.def_12 (not .def_11))) (let ((.def_13 (= A4 A1))) (let ((.def_14 (not .def_13))) (let ((.def_15 (or A24 A2))) (let ((.def_16 (or .def_15 .def_14))) (let ((.def_17 (not .def_16))) (let ((.def_18 (not A5))) (let ((.def_19 (not A12))) (let ((.def_20 (= .def_19 .def_18))) (let ((.def_21 (or A20 A23))) (let ((.def_22 (not .def_21))) (let ((.def_23 (or .def_22 .def_20))) (let ((.def_24 (or .def_23 .def_17))) (let ((.def_25 (not .def_24))) (let ((.def_26 (or .def_25 .def_12))) (let ((.def_27 (= A16 A15))) (let ((.def_28 (not .def_27))) (let ((.def_29 (not A16))) (let ((.def_30 (not A0))) (let ((.def_31 (and .def_30 .def_29))) (let ((.def_32 (or .def_31 .def_28))) (let ((.def_33 (not A14))) (let ((.def_34 (and .def_33 A11))) (let ((.def_35 (not A29))) (let ((.def_36 (not A7))) (let ((.def_37 (and .def_36 .def_35))) (let ((.def_38 (not .def_37))) (let ((.def_39 (or .def_38 .def_34))) (let ((.def_40 (not .def_39))) (let ((.def_41 (and .def_40 .def_32))) (let ((.def_42 (or A22 A15))) (let ((.def_43 (not .def_42))) (let ((.def_44 (and .def_29 A7))) (let ((.def_45 (not .def_44))) (let ((.def_46 (or .def_45 .def_43))) (let ((.def_47 (not .def_46))) (let ((.def_48 (not A2))) (let ((.def_49 (or A10 .def_48))) (let ((.def_50 (not .def_49))) (let ((.def_51 (or .def_48 A10))) (let ((.def_52 (not .def_51))) (let ((.def_53 (or .def_52 .def_50))) (let ((.def_54 (not .def_53))) (let ((.def_55 (and .def_54 .def_47))) (let ((.def_56 (not .def_55))) (let ((.def_57 (and .def_56 .def_41))) (let ((.def_58 (not .def_57))) (let ((.def_59 (or .def_58 .def_26))) (let ((.def_60 (not .def_59))) (let ((.def_61 (or A10 .def_1))) (let ((.def_62 (not .def_61))) (let ((.def_63 (not A28))) (let ((.def_64 (and .def_63 A8))) (let ((.def_65 (and .def_64 .def_62))) (let ((.def_66 (not A18))) (let ((.def_67 (or .def_66 .def_36))) (let ((.def_68 (not .def_67))) (let ((.def_69 (not A4))) (let ((.def_70 (or .def_69 .def_66))) (let ((.def_71 (not .def_70))) (let ((.def_72 (or .def_71 .def_68))) (let ((.def_73 (not .def_72))) (let ((.def_74 (and .def_73 .def_65))) (let ((.def_75 (not .def_74))) (let ((.def_76 (and A19 .def_35))) (let ((.def_77 (= A12 .def_36))) (let ((.def_78 (not .def_77))) (let ((.def_79 (= .def_78 .def_76))) (let ((.def_80 (not A27))) (let ((.def_81 (and .def_80 .def_2))) (let ((.def_82 (or A2 .def_36))) (let ((.def_83 (or .def_82 .def_81))) (let ((.def_84 (or .def_83 .def_79))) (let ((.def_85 (not .def_84))) (let ((.def_86 (and .def_85 .def_75))) (let ((.def_87 (not .def_86))) (let ((.def_88 (not A20))) (let ((.def_89 (and A23 .def_88))) (let ((.def_90 (and A12 .def_33))) (let ((.def_91 (not .def_90))) (let ((.def_92 (or .def_91 .def_89))) (let ((.def_93 (and A18 A26))) (let ((.def_94 (and A0 .def_88))) (let ((.def_95 (not .def_94))) (let ((.def_96 (= .def_95 .def_93))) (let ((.def_97 (and .def_96 .def_92))) (let ((.def_98 (not A17))) (let ((.def_99 (= A26 .def_98))) (let ((.def_100 (not .def_99))) (let ((.def_101 (not A22))) (let ((.def_102 (= .def_48 .def_101))) (let ((.def_103 (not .def_102))) (let ((.def_104 (= .def_103 .def_100))) (let ((.def_105 (not A25))) (let ((.def_106 (or .def_105 .def_63))) (let ((.def_107 (not .def_106))) (let ((.def_108 (or .def_2 A13))) (let ((.def_109 (not .def_108))) (let ((.def_110 (or .def_109 .def_107))) (let ((.def_111 (and .def_110 .def_104))) (let ((.def_112 (not .def_111))) (let ((.def_113 (or .def_112 .def_97))) (let ((.def_114 (or .def_113 .def_87))) (let ((.def_115 (not .def_114))) (let ((.def_116 (and .def_115 .def_60))) (let ((.def_117 (not .def_116))) .def_117)))))))))))))))))))))))))))))))))))))))))))))))))))))))))))))))))))))))))))))))))))))))))))))))))))))))))))))))))))))))
(check-sat)
